array [1..3] of int: X_INTRODUCED_33_ = [-1,-1,-4];
array [1..6] of int: X_INTRODUCED_47_ = [-1,-1,-1,-1,-4,-4];
array [1..8] of int: X_INTRODUCED_62_ = [-1,-1,-1,-1,-1,-4,-4,-4];
array [1..9] of int: X_INTRODUCED_77_ = [-1,-1,-1,-1,-1,-4,-4,-4,-4];
array [1..31] of int: X_INTRODUCED_103_ = [1,-1,-6,-2,-1,-6,-2,-1,-6,-2,-1,-6,-2,-1,-6,-2,-1,-6,-2,-1,-6,-2,-1,-6,-2,-1,-6,-2,-1,-6,-2];
var int: X_INTRODUCED_0_;
var int: X_INTRODUCED_1_;
var int: X_INTRODUCED_2_;
var int: X_INTRODUCED_3_;
var int: X_INTRODUCED_4_;
var int: X_INTRODUCED_5_;
var int: X_INTRODUCED_6_;
var int: X_INTRODUCED_7_;
var int: X_INTRODUCED_8_;
var int: X_INTRODUCED_9_;
var int: X_INTRODUCED_10_;
var int: X_INTRODUCED_11_;
var int: X_INTRODUCED_12_;
var int: X_INTRODUCED_13_;
var int: X_INTRODUCED_14_;
var int: X_INTRODUCED_15_;
var int: X_INTRODUCED_16_;
var int: X_INTRODUCED_17_;
var int: X_INTRODUCED_18_;
var int: X_INTRODUCED_19_;
var int: X_INTRODUCED_20_;
var int: X_INTRODUCED_21_;
var int: X_INTRODUCED_22_;
var int: X_INTRODUCED_23_;
var int: X_INTRODUCED_24_;
var int: X_INTRODUCED_25_;
var int: X_INTRODUCED_26_;
var int: X_INTRODUCED_27_;
var int: X_INTRODUCED_28_;
var int: X_INTRODUCED_29_;
var int: cost:: is_defined_var;
var int: X_INTRODUCED_32_:: var_is_introduced:: is_defined_var;
var int: X_INTRODUCED_35_:: var_is_introduced:: is_defined_var;
var float: X_INTRODUCED_36_:: var_is_introduced:: is_defined_var;
var float: X_INTRODUCED_39_:: var_is_introduced:: is_defined_var;
var float: X_INTRODUCED_40_:: var_is_introduced:: is_defined_var;
var float: X_INTRODUCED_41_:: var_is_introduced:: is_defined_var;
var float: X_INTRODUCED_42_:: var_is_introduced:: is_defined_var;
var float: X_INTRODUCED_44_:: var_is_introduced:: is_defined_var;
var int: X_INTRODUCED_46_:: var_is_introduced:: is_defined_var;
var int: X_INTRODUCED_50_:: var_is_introduced:: is_defined_var;
var float: X_INTRODUCED_51_:: var_is_introduced:: is_defined_var;
var float: X_INTRODUCED_53_:: var_is_introduced:: is_defined_var;
var float: X_INTRODUCED_54_:: var_is_introduced:: is_defined_var;
var float: X_INTRODUCED_55_:: var_is_introduced:: is_defined_var;
var float: X_INTRODUCED_56_:: var_is_introduced:: is_defined_var;
var int: X_INTRODUCED_57_:: var_is_introduced:: is_defined_var;
var float: X_INTRODUCED_58_:: var_is_introduced:: is_defined_var;
var float: X_INTRODUCED_59_:: var_is_introduced:: is_defined_var;
var int: X_INTRODUCED_61_:: var_is_introduced:: is_defined_var;
var int: X_INTRODUCED_65_:: var_is_introduced:: is_defined_var;
var float: X_INTRODUCED_66_:: var_is_introduced:: is_defined_var;
var float: X_INTRODUCED_68_:: var_is_introduced:: is_defined_var;
var float: X_INTRODUCED_69_:: var_is_introduced:: is_defined_var;
var float: X_INTRODUCED_70_:: var_is_introduced:: is_defined_var;
var float: X_INTRODUCED_71_:: var_is_introduced:: is_defined_var;
var int: X_INTRODUCED_72_:: var_is_introduced:: is_defined_var;
var float: X_INTRODUCED_73_:: var_is_introduced:: is_defined_var;
var float: X_INTRODUCED_74_:: var_is_introduced:: is_defined_var;
var int: X_INTRODUCED_76_:: var_is_introduced:: is_defined_var;
var int: X_INTRODUCED_80_:: var_is_introduced:: is_defined_var;
var float: X_INTRODUCED_81_:: var_is_introduced:: is_defined_var;
var float: X_INTRODUCED_83_:: var_is_introduced:: is_defined_var;
var float: X_INTRODUCED_84_:: var_is_introduced:: is_defined_var;
var float: X_INTRODUCED_85_:: var_is_introduced:: is_defined_var;
var float: X_INTRODUCED_86_:: var_is_introduced:: is_defined_var;
var int: X_INTRODUCED_87_:: var_is_introduced:: is_defined_var;
var float: X_INTRODUCED_88_:: var_is_introduced:: is_defined_var;
var float: X_INTRODUCED_89_:: var_is_introduced:: is_defined_var;
array [1..10] of var int: N = [X_INTRODUCED_0_,X_INTRODUCED_1_,X_INTRODUCED_2_,X_INTRODUCED_3_,X_INTRODUCED_4_,X_INTRODUCED_5_,X_INTRODUCED_6_,X_INTRODUCED_7_,X_INTRODUCED_8_,X_INTRODUCED_9_];
array [1..10] of var int: C = [X_INTRODUCED_10_,X_INTRODUCED_11_,X_INTRODUCED_12_,X_INTRODUCED_13_,X_INTRODUCED_14_,X_INTRODUCED_15_,X_INTRODUCED_16_,X_INTRODUCED_17_,X_INTRODUCED_18_,X_INTRODUCED_19_];
array [1..10] of var int: S = [X_INTRODUCED_20_,X_INTRODUCED_21_,X_INTRODUCED_22_,X_INTRODUCED_23_,X_INTRODUCED_24_,X_INTRODUCED_25_,X_INTRODUCED_26_,X_INTRODUCED_27_,X_INTRODUCED_28_,X_INTRODUCED_29_];
array [1..31] of var int: X_INTRODUCED_102_:: var_is_introduced = [cost,X_INTRODUCED_10_,X_INTRODUCED_0_,X_INTRODUCED_20_,X_INTRODUCED_11_,X_INTRODUCED_1_,X_INTRODUCED_21_,X_INTRODUCED_12_,X_INTRODUCED_2_,X_INTRODUCED_22_,X_INTRODUCED_13_,X_INTRODUCED_3_,X_INTRODUCED_23_,X_INTRODUCED_14_,X_INTRODUCED_4_,X_INTRODUCED_24_,X_INTRODUCED_15_,X_INTRODUCED_5_,X_INTRODUCED_25_,X_INTRODUCED_16_,X_INTRODUCED_6_,X_INTRODUCED_26_,X_INTRODUCED_17_,X_INTRODUCED_7_,X_INTRODUCED_27_,X_INTRODUCED_18_,X_INTRODUCED_8_,X_INTRODUCED_28_,X_INTRODUCED_19_,X_INTRODUCED_9_,X_INTRODUCED_29_];
constraint int_lin_le(X_INTRODUCED_33_,[X_INTRODUCED_20_,X_INTRODUCED_10_,X_INTRODUCED_0_],-7);
constraint float_le(X_INTRODUCED_36_,X_INTRODUCED_42_);
constraint float_le(X_INTRODUCED_44_,X_INTRODUCED_39_);
constraint int_lin_le(X_INTRODUCED_47_,[X_INTRODUCED_20_,X_INTRODUCED_21_,X_INTRODUCED_10_,X_INTRODUCED_11_,X_INTRODUCED_1_,X_INTRODUCED_0_],-10);
constraint float_le(X_INTRODUCED_51_,X_INTRODUCED_56_);
constraint float_le(X_INTRODUCED_59_,X_INTRODUCED_58_);
constraint int_lin_le(X_INTRODUCED_62_,[X_INTRODUCED_20_,X_INTRODUCED_21_,X_INTRODUCED_22_,X_INTRODUCED_11_,X_INTRODUCED_12_,X_INTRODUCED_2_,X_INTRODUCED_1_,X_INTRODUCED_0_],-18);
constraint float_le(X_INTRODUCED_66_,X_INTRODUCED_71_);
constraint float_le(X_INTRODUCED_74_,X_INTRODUCED_73_);
constraint int_lin_le(X_INTRODUCED_77_,[X_INTRODUCED_21_,X_INTRODUCED_22_,X_INTRODUCED_23_,X_INTRODUCED_12_,X_INTRODUCED_13_,X_INTRODUCED_3_,X_INTRODUCED_2_,X_INTRODUCED_1_,X_INTRODUCED_0_],-17);
constraint float_le(X_INTRODUCED_81_,X_INTRODUCED_86_);
constraint float_le(X_INTRODUCED_89_,X_INTRODUCED_88_);
constraint int_lin_eq(X_INTRODUCED_103_,X_INTRODUCED_102_,0):: defines_var(cost);
constraint int_le(0,X_INTRODUCED_0_);
constraint int_le(0,X_INTRODUCED_1_);
constraint int_le(0,X_INTRODUCED_2_);
constraint int_le(0,X_INTRODUCED_3_);
constraint int_le(0,X_INTRODUCED_4_);
constraint int_le(0,X_INTRODUCED_5_);
constraint int_le(0,X_INTRODUCED_6_);
constraint int_le(0,X_INTRODUCED_7_);
constraint int_le(0,X_INTRODUCED_8_);
constraint int_le(0,X_INTRODUCED_9_);
constraint int_le(0,X_INTRODUCED_10_);
constraint int_le(0,X_INTRODUCED_11_);
constraint int_le(0,X_INTRODUCED_12_);
constraint int_le(0,X_INTRODUCED_13_);
constraint int_le(0,X_INTRODUCED_14_);
constraint int_le(0,X_INTRODUCED_15_);
constraint int_le(0,X_INTRODUCED_16_);
constraint int_le(0,X_INTRODUCED_17_);
constraint int_le(0,X_INTRODUCED_18_);
constraint int_le(0,X_INTRODUCED_19_);
constraint int_le(0,X_INTRODUCED_20_);
constraint int_le(0,X_INTRODUCED_21_);
constraint int_le(0,X_INTRODUCED_22_);
constraint int_le(0,X_INTRODUCED_23_);
constraint int_le(0,X_INTRODUCED_24_);
constraint int_le(0,X_INTRODUCED_25_);
constraint int_le(0,X_INTRODUCED_26_);
constraint int_le(0,X_INTRODUCED_27_);
constraint int_le(0,X_INTRODUCED_28_);
constraint int_le(0,X_INTRODUCED_29_);
constraint int_le(0,cost);
constraint int_le(18,X_INTRODUCED_32_);
constraint int_le(0,X_INTRODUCED_35_);
constraint int_le(15,X_INTRODUCED_46_);
constraint int_le(0,X_INTRODUCED_50_);
constraint int_le(0,X_INTRODUCED_57_);
constraint int_le(12,X_INTRODUCED_61_);
constraint int_le(0,X_INTRODUCED_65_);
constraint int_le(0,X_INTRODUCED_72_);
constraint int_le(8,X_INTRODUCED_76_);
constraint int_le(0,X_INTRODUCED_80_);
constraint int_le(0,X_INTRODUCED_87_);
constraint int_lin_eq([1,1,4,-1],[X_INTRODUCED_20_,X_INTRODUCED_10_,X_INTRODUCED_0_,X_INTRODUCED_32_],-18):: defines_var(X_INTRODUCED_32_);
constraint int_lin_eq([4,-1],[X_INTRODUCED_0_,X_INTRODUCED_35_],0):: defines_var(X_INTRODUCED_35_);
constraint int2float(X_INTRODUCED_35_,X_INTRODUCED_36_):: defines_var(X_INTRODUCED_36_);
constraint int2float(X_INTRODUCED_20_,X_INTRODUCED_39_):: defines_var(X_INTRODUCED_39_);
constraint int2float(X_INTRODUCED_10_,X_INTRODUCED_40_):: defines_var(X_INTRODUCED_40_);
constraint int2float(X_INTRODUCED_0_,X_INTRODUCED_41_):: defines_var(X_INTRODUCED_41_);
constraint float_lin_eq([0.4,0.4,1.6,-1.0],[X_INTRODUCED_39_,X_INTRODUCED_40_,X_INTRODUCED_41_,X_INTRODUCED_42_],-7.2):: defines_var(X_INTRODUCED_42_);
constraint float_lin_eq([0.2,0.2,0.8,-1.0],[X_INTRODUCED_39_,X_INTRODUCED_40_,X_INTRODUCED_41_,X_INTRODUCED_44_],-3.6):: defines_var(X_INTRODUCED_44_);
constraint int_lin_eq([1,1,1,1,4,4,-1],[X_INTRODUCED_20_,X_INTRODUCED_21_,X_INTRODUCED_10_,X_INTRODUCED_11_,X_INTRODUCED_1_,X_INTRODUCED_0_,X_INTRODUCED_46_],-15):: defines_var(X_INTRODUCED_46_);
constraint int_lin_eq([4,4,-1],[X_INTRODUCED_0_,X_INTRODUCED_1_,X_INTRODUCED_50_],0):: defines_var(X_INTRODUCED_50_);
constraint int2float(X_INTRODUCED_50_,X_INTRODUCED_51_):: defines_var(X_INTRODUCED_51_);
constraint int2float(X_INTRODUCED_21_,X_INTRODUCED_53_):: defines_var(X_INTRODUCED_53_);
constraint int2float(X_INTRODUCED_11_,X_INTRODUCED_54_):: defines_var(X_INTRODUCED_54_);
constraint int2float(X_INTRODUCED_1_,X_INTRODUCED_55_):: defines_var(X_INTRODUCED_55_);
constraint float_lin_eq([0.4,0.4,0.4,0.4,1.6,1.6,-1.0],[X_INTRODUCED_39_,X_INTRODUCED_53_,X_INTRODUCED_40_,X_INTRODUCED_54_,X_INTRODUCED_55_,X_INTRODUCED_41_,X_INTRODUCED_56_],-6.0):: defines_var(X_INTRODUCED_56_);
constraint int_lin_eq([1,1,-1],[X_INTRODUCED_20_,X_INTRODUCED_21_,X_INTRODUCED_57_],0):: defines_var(X_INTRODUCED_57_);
constraint int2float(X_INTRODUCED_57_,X_INTRODUCED_58_):: defines_var(X_INTRODUCED_58_);
constraint float_lin_eq([0.2,0.2,0.2,0.2,0.8,0.8,-1.0],[X_INTRODUCED_39_,X_INTRODUCED_53_,X_INTRODUCED_40_,X_INTRODUCED_54_,X_INTRODUCED_55_,X_INTRODUCED_41_,X_INTRODUCED_59_],-3.0):: defines_var(X_INTRODUCED_59_);
constraint int_lin_eq([1,1,1,1,1,4,4,4,-1],[X_INTRODUCED_20_,X_INTRODUCED_21_,X_INTRODUCED_22_,X_INTRODUCED_11_,X_INTRODUCED_12_,X_INTRODUCED_2_,X_INTRODUCED_1_,X_INTRODUCED_0_,X_INTRODUCED_61_],-12):: defines_var(X_INTRODUCED_61_);
constraint int_lin_eq([4,4,4,-1],[X_INTRODUCED_1_,X_INTRODUCED_0_,X_INTRODUCED_2_,X_INTRODUCED_65_],0):: defines_var(X_INTRODUCED_65_);
constraint int2float(X_INTRODUCED_65_,X_INTRODUCED_66_):: defines_var(X_INTRODUCED_66_);
constraint int2float(X_INTRODUCED_22_,X_INTRODUCED_68_):: defines_var(X_INTRODUCED_68_);
constraint int2float(X_INTRODUCED_12_,X_INTRODUCED_69_):: defines_var(X_INTRODUCED_69_);
constraint int2float(X_INTRODUCED_2_,X_INTRODUCED_70_):: defines_var(X_INTRODUCED_70_);
constraint float_lin_eq([0.4,0.4,0.4,0.4,0.4,1.6,1.6,1.6,-1.0],[X_INTRODUCED_39_,X_INTRODUCED_53_,X_INTRODUCED_68_,X_INTRODUCED_54_,X_INTRODUCED_69_,X_INTRODUCED_70_,X_INTRODUCED_55_,X_INTRODUCED_41_,X_INTRODUCED_71_],-4.800000000000001):: defines_var(X_INTRODUCED_71_);
constraint int_lin_eq([1,1,1,-1],[X_INTRODUCED_21_,X_INTRODUCED_22_,X_INTRODUCED_20_,X_INTRODUCED_72_],0):: defines_var(X_INTRODUCED_72_);
constraint int2float(X_INTRODUCED_72_,X_INTRODUCED_73_):: defines_var(X_INTRODUCED_73_);
constraint float_lin_eq([0.2,0.2,0.2,0.2,0.2,0.8,0.8,0.8,-1.0],[X_INTRODUCED_39_,X_INTRODUCED_53_,X_INTRODUCED_68_,X_INTRODUCED_54_,X_INTRODUCED_69_,X_INTRODUCED_70_,X_INTRODUCED_55_,X_INTRODUCED_41_,X_INTRODUCED_74_],-2.4):: defines_var(X_INTRODUCED_74_);
constraint int_lin_eq([1,1,1,1,1,4,4,4,4,-1],[X_INTRODUCED_21_,X_INTRODUCED_22_,X_INTRODUCED_23_,X_INTRODUCED_12_,X_INTRODUCED_13_,X_INTRODUCED_3_,X_INTRODUCED_2_,X_INTRODUCED_1_,X_INTRODUCED_0_,X_INTRODUCED_76_],-8):: defines_var(X_INTRODUCED_76_);
constraint int_lin_eq([4,4,4,4,-1],[X_INTRODUCED_2_,X_INTRODUCED_1_,X_INTRODUCED_0_,X_INTRODUCED_3_,X_INTRODUCED_80_],0):: defines_var(X_INTRODUCED_80_);
constraint int2float(X_INTRODUCED_80_,X_INTRODUCED_81_):: defines_var(X_INTRODUCED_81_);
constraint int2float(X_INTRODUCED_23_,X_INTRODUCED_83_):: defines_var(X_INTRODUCED_83_);
constraint int2float(X_INTRODUCED_13_,X_INTRODUCED_84_):: defines_var(X_INTRODUCED_84_);
constraint int2float(X_INTRODUCED_3_,X_INTRODUCED_85_):: defines_var(X_INTRODUCED_85_);
constraint float_lin_eq([0.4,0.4,0.4,0.4,0.4,1.6,1.6,1.6,1.6,-1.0],[X_INTRODUCED_53_,X_INTRODUCED_68_,X_INTRODUCED_83_,X_INTRODUCED_69_,X_INTRODUCED_84_,X_INTRODUCED_85_,X_INTRODUCED_70_,X_INTRODUCED_55_,X_INTRODUCED_41_,X_INTRODUCED_86_],-3.2):: defines_var(X_INTRODUCED_86_);
constraint int_lin_eq([1,1,1,-1],[X_INTRODUCED_22_,X_INTRODUCED_23_,X_INTRODUCED_21_,X_INTRODUCED_87_],0):: defines_var(X_INTRODUCED_87_);
constraint int2float(X_INTRODUCED_87_,X_INTRODUCED_88_):: defines_var(X_INTRODUCED_88_);
constraint float_lin_eq([0.2,0.2,0.2,0.2,0.2,0.8,0.8,0.8,0.8,-1.0],[X_INTRODUCED_53_,X_INTRODUCED_68_,X_INTRODUCED_83_,X_INTRODUCED_69_,X_INTRODUCED_84_,X_INTRODUCED_85_,X_INTRODUCED_70_,X_INTRODUCED_55_,X_INTRODUCED_41_,X_INTRODUCED_89_],-1.6):: defines_var(X_INTRODUCED_89_);
solve  satisfy;
